(set-logic QF_S)
(declare-fun _var_0xINPUT_107123_() String)
(declare-fun __woorpje_diseq_pref0_() String)
(declare-fun __woorpje_diseq_suf_l0_() String)
(declare-fun __woorpje_diseq_suf_r0_() String)
(assert (=(str.++ _var_0xINPUT_107123_  "")(str.++ __woorpje_diseq_pref0_  "d" __woorpje_diseq_suf_l0_  "")) )
(assert (=(str.++  "7xBaBaBdZY" "")(str.++ __woorpje_diseq_pref0_  "Y" __woorpje_diseq_suf_r0_  "")) )
(check-sat)
